solution status: optimal solution found
objective value:                     223448.215989797
d11(0,0)                                            1 	(obj:0)
d11(1,1)                                            1 	(obj:0)
d11(2,3)                                            1 	(obj:0)
d11(3,7)                                            1 	(obj:0)
d11(3,9)                                            1 	(obj:0)
d11(3,11)                                           1 	(obj:0)
d11(3,12)                                           1 	(obj:0)
d11(3,13)                                           1 	(obj:0)
d11(4,15)                                           1 	(obj:0)
d11(4,17)                                           1 	(obj:0)
d11(4,19)                                           1 	(obj:0)
d11(4,20)                                           1 	(obj:0)
d11(4,21)                                           1 	(obj:0)
d11(4,22)                                           1 	(obj:0)
d11(4,23)                                           1 	(obj:0)
d11(4,24)                                           1 	(obj:0)
d11(4,25)                                           1 	(obj:0)
d11(4,26)                                           1 	(obj:0)
d11(4,27)                                           1 	(obj:0)
d11(4,28)                                           1 	(obj:0)
d11(4,29)                                           1 	(obj:0)
d11(4,30)                                           1 	(obj:0)
d11(5,31)                                           1 	(obj:0)
d11(5,32)                                           1 	(obj:0)
d11(5,33)                                           1 	(obj:0)
d11(5,34)                                           1 	(obj:0)
d11(5,35)                                           1 	(obj:0)
d11(5,36)                                           1 	(obj:0)
d11(5,37)                                           1 	(obj:0)
d11(5,38)                                           1 	(obj:0)
d11(5,39)                                           1 	(obj:0)
d11(5,40)                                           1 	(obj:0)
d11(5,41)                                           1 	(obj:0)
d11(5,42)                                           1 	(obj:0)
d11(5,43)                                           1 	(obj:0)
d11(5,44)                                           1 	(obj:0)
d11(5,45)                                           1 	(obj:0)
d11(5,46)                                           1 	(obj:0)
d11(5,47)                                           1 	(obj:0)
d11(5,48)                                           1 	(obj:0)
d11(5,49)                                           1 	(obj:0)
d11(5,50)                                           1 	(obj:0)
d11(5,51)                                           1 	(obj:0)
d11(5,52)                                           1 	(obj:0)
d11(5,53)                                           1 	(obj:0)
d11(5,54)                                           1 	(obj:0)
d11(5,55)                                           1 	(obj:0)
d11(5,56)                                           1 	(obj:0)
d11(5,57)                                           1 	(obj:0)
d11(5,58)                                           1 	(obj:0)
d11(5,59)                                           1 	(obj:0)
d11(5,60)                                           1 	(obj:0)
d11(5,61)                                           1 	(obj:0)
d11(5,62)                                           1 	(obj:0)
d11(6,63)                                           1 	(obj:0)
d11(6,65)                                           1 	(obj:0)
d11(6,67)                                           1 	(obj:0)
d11(6,69)                                           1 	(obj:0)
d11(6,71)                                           1 	(obj:0)
d11(6,73)                                           1 	(obj:0)
d11(6,75)                                           1 	(obj:0)
d11(6,77)                                           1 	(obj:0)
d11(6,79)                                           1 	(obj:0)
d11(6,81)                                           1 	(obj:0)
d11(6,83)                                           1 	(obj:0)
d11(6,85)                                           1 	(obj:0)
d11(6,87)                            1.00000000000001 	(obj:0)
d11(6,89)                                           1 	(obj:0)
d11(6,91)                           0.999999999999997 	(obj:0)
d11(6,93)                                           1 	(obj:0)
d11(6,95)                                           1 	(obj:0)
d11(6,97)                                           1 	(obj:0)
d11(6,99)                                           1 	(obj:0)
d11(6,103)                                          1 	(obj:0)
d11(6,105)                                          1 	(obj:0)
d11(6,107)                                          1 	(obj:0)
d11(6,109)                                          1 	(obj:0)
d11(6,111)                           1.00000000000001 	(obj:0)
d11(6,113)                                          1 	(obj:0)
d11(6,115)                                          1 	(obj:0)
d11(6,117)                                          1 	(obj:0)
d11(6,119)                                          1 	(obj:0)
d11(6,121)                                          1 	(obj:0)
d11(6,123)                                          1 	(obj:0)
d11(6,125)                                          1 	(obj:0)
d12(2,4)                                            1 	(obj:0)
d12(2,6)                                            1 	(obj:0)
d12(6,64)                                           1 	(obj:0)
d12(6,66)                                           1 	(obj:0)
d12(6,68)                                           1 	(obj:0)
d12(6,70)                                           1 	(obj:0)
d12(6,72)                                           1 	(obj:0)
d12(6,74)                                           1 	(obj:0)
d12(6,76)                                           1 	(obj:0)
d12(6,78)                                           1 	(obj:0)
d12(6,80)                                           1 	(obj:0)
d12(6,82)                                           1 	(obj:0)
d12(6,84)                                           1 	(obj:0)
d12(6,86)                                           1 	(obj:0)
d12(6,88)                                           1 	(obj:0)
d12(6,90)                                           1 	(obj:0)
d12(6,92)                                           1 	(obj:0)
d12(6,94)                                           1 	(obj:0)
d12(6,96)                                           1 	(obj:0)
d12(6,98)                                           1 	(obj:0)
d12(6,100)                                          1 	(obj:0)
d12(6,102)                                          1 	(obj:0)
d12(6,104)                                          1 	(obj:0)
d12(6,106)                                          1 	(obj:0)
d12(6,108)                                          1 	(obj:0)
d12(6,110)                                          1 	(obj:0)
d12(6,112)                                          1 	(obj:0)
d12(6,114)                                          1 	(obj:0)
d12(6,116)                                          1 	(obj:0)
d12(6,118)                                          1 	(obj:0)
d12(6,120)                                          1 	(obj:0)
d12(6,122)                                          1 	(obj:0)
d12(6,124)                                          1 	(obj:0)
d12(6,126)                                          1 	(obj:0)
d21(4,15)                                           1 	(obj:0)
d21(5,31)                                           1 	(obj:0)
d21(5,32)                                           1 	(obj:0)
d21(5,33)                                           1 	(obj:0)
d21(5,34)                                           1 	(obj:0)
d21(5,35)                                           1 	(obj:0)
d21(5,36)                                           1 	(obj:0)
d21(5,37)                                           1 	(obj:0)
d21(5,39)                                           1 	(obj:0)
d21(5,40)                                           1 	(obj:0)
d21(5,41)                                           1 	(obj:0)
d21(5,43)                                           1 	(obj:0)
d21(5,47)                                           1 	(obj:0)
d21(5,48)                                           1 	(obj:0)
d21(5,49)                                           1 	(obj:0)
d21(5,51)                                           1 	(obj:0)
d21(5,55)                                           1 	(obj:0)
d21(6,63)                                           1 	(obj:0)
d21(6,64)                                           1 	(obj:0)
d21(6,65)                                           1 	(obj:0)
d21(6,66)                                           1 	(obj:0)
d21(6,67)                                           1 	(obj:0)
d21(6,68)                                           1 	(obj:0)
d21(6,69)                                           1 	(obj:0)
d21(6,70)                                           1 	(obj:0)
d21(6,71)                                           1 	(obj:0)
d21(6,72)                                           1 	(obj:0)
d21(6,73)                                           1 	(obj:0)
d21(6,74)                                           1 	(obj:0)
d21(6,75)                                           1 	(obj:0)
d21(6,76)                                           1 	(obj:0)
d21(6,79)                                           1 	(obj:0)
d21(6,80)                                           1 	(obj:0)
d21(6,81)                                           1 	(obj:0)
d21(6,82)                                           1 	(obj:0)
d21(6,83)                                           1 	(obj:0)
d21(6,84)                                           1 	(obj:0)
d21(6,85)                                           1 	(obj:0)
d21(6,87)                                           1 	(obj:0)
d21(6,88)                                           1 	(obj:0)
d21(6,89)                                           1 	(obj:0)
d21(6,91)                                           1 	(obj:0)
d21(6,95)                                           1 	(obj:0)
d21(6,96)                                           1 	(obj:0)
d21(6,97)                                           1 	(obj:0)
d21(6,98)                                           1 	(obj:0)
d21(6,99)                                           1 	(obj:0)
d21(6,100)                                          1 	(obj:0)
d21(6,103)                                          1 	(obj:0)
d21(6,104)                                          1 	(obj:0)
d21(6,105)                                          1 	(obj:0)
d21(6,107)                                          1 	(obj:0)
d21(6,111)                                          1 	(obj:0)
d21(6,112)                                          1 	(obj:0)
d21(6,113)                                          1 	(obj:0)
d21(6,115)                                          1 	(obj:0)
d21(6,119)                                          1 	(obj:0)
y2(6,100)                            1385.48851144895 	(obj:0)
y2(6,102)                            1385.48851144895 	(obj:0)
y2(6,104)                            1385.48851144895 	(obj:0)
y2(6,106)                            1385.48851144895 	(obj:0)
y2(6,108)                            1385.48851144895 	(obj:0)
y2(6,110)                            1385.48851144895 	(obj:0)
y2(6,112)                            1385.48851144895 	(obj:0)
y2(6,114)                            1385.48851144895 	(obj:0)
y2(6,116)                            1385.48851144895 	(obj:0)
y2(6,118)                            1385.48851144895 	(obj:0)
y2(6,120)                            1385.48851144895 	(obj:0)
y2(6,122)                            1385.48851144895 	(obj:0)
y2(6,124)                            1385.48851144895 	(obj:0)
y2(6,126)                            1385.48851144895 	(obj:0)
STE(1,1)                             12831.7501011112 	(obj:0)
STE(0,0)                                        15750 	(obj:0)
STE(1,2)                                        14490 	(obj:0)
STE(2,3)                             11571.7501011112 	(obj:0)
STE(2,4)                             12887.9641869877 	(obj:0)
STE(2,5)                                        13230 	(obj:0)
STE(2,6)                             14546.2140858765 	(obj:0)
STE(3,7)                             8653.50020222243 	(obj:0)
STE(3,8)                             10311.7501011112 	(obj:0)
STE(3,9)                              9969.7142880989 	(obj:0)
STE(3,10)                            11627.9641869877 	(obj:0)
STE(3,11)                            10311.7501011112 	(obj:0)
STE(3,12)                            11970.0000000001 	(obj:0)
STE(3,13)                            11627.9641869877 	(obj:0)
STE(3,14)                            13286.2140858765 	(obj:0)
STE(4,15)                            5735.25030333359 	(obj:0)
STE(4,16)                            7393.50020222243 	(obj:0)
STE(4,17)                            7393.50020222235 	(obj:0)
STE(4,18)                             9051.7501011112 	(obj:0)
STE(4,19)                            7051.46438921006 	(obj:0)
STE(4,20)                             8709.7142880989 	(obj:0)
STE(4,21)                            8709.71428809882 	(obj:0)
STE(4,22)                            10367.9641869877 	(obj:0)
STE(4,23)                            7393.50020222239 	(obj:0)
STE(4,24)                            9051.75010111124 	(obj:0)
STE(4,25)                            9051.75010111121 	(obj:0)
STE(4,26)                            10710.0000000001 	(obj:0)
STE(4,27)                             8709.7142880989 	(obj:0)
STE(4,28)                            10367.9641869877 	(obj:0)
STE(4,29)                            10367.9641869877 	(obj:0)
STE(4,30)                            12026.2140858765 	(obj:0)
STE(5,31)                            2585.25030333353 	(obj:0)
STE(5,32)                            4243.50020222235 	(obj:0)
STE(5,33)                            4243.50020222238 	(obj:0)
STE(5,34)                             5901.7501011112 	(obj:0)
STE(5,35)                             4243.5002022223 	(obj:0)
STE(5,36)                            5901.75010111111 	(obj:0)
STE(5,37)                            5901.75010111114 	(obj:0)
STE(5,38)                            7559.99999999996 	(obj:0)
STE(5,39)                               3901.46438921 	(obj:0)
STE(5,40)                            5559.71428809882 	(obj:0)
STE(5,41)                            5559.71428809884 	(obj:0)
STE(5,42)                            7217.96418698766 	(obj:0)
STE(5,43)                            5559.71428809876 	(obj:0)
STE(5,44)                            7217.96418698758 	(obj:0)
STE(5,45)                            7217.96418698761 	(obj:0)
STE(5,46)                            8876.21408587643 	(obj:0)
STE(5,47)                            4243.50020222234 	(obj:0)
STE(5,48)                            5901.75010111115 	(obj:0)
STE(5,49)                            5901.75010111118 	(obj:0)
STE(5,50)                                        7560 	(obj:0)
STE(5,51)                            5901.75010111116 	(obj:0)
STE(5,52)                            7559.99999999997 	(obj:0)
STE(5,53)                                        7560 	(obj:0)
STE(5,54)                            9218.24989888882 	(obj:0)
STE(5,55)                            5559.71428809884 	(obj:0)
STE(5,56)                            7217.96418698766 	(obj:0)
STE(5,57)                            7217.96418698769 	(obj:0)
STE(5,58)                            8876.21408587651 	(obj:0)
STE(5,59)                            7217.96418698761 	(obj:0)
STE(5,60)                            8876.21408587642 	(obj:0)
STE(5,61)                            8876.21408587645 	(obj:0)
STE(5,62)                            10534.4639847653 	(obj:0)
STE(6,63)                            1325.25030333353 	(obj:0)
STE(6,64)                            2641.46438921004 	(obj:0)
STE(6,65)                            2983.50020222235 	(obj:0)
STE(6,66)                            4299.71428809886 	(obj:0)
STE(6,67)                            2983.50020222238 	(obj:0)
STE(6,68)                            4299.71428809889 	(obj:0)
STE(6,69)                             4641.7501011112 	(obj:0)
STE(6,70)                             5957.9641869877 	(obj:0)
STE(6,71)                             2983.5002022223 	(obj:0)
STE(6,72)                             4299.7142880988 	(obj:0)
STE(6,73)                            4641.75010111111 	(obj:0)
STE(6,74)                            5957.96418698762 	(obj:0)
STE(6,75)                            4641.75010111114 	(obj:0)
STE(6,76)                            5957.96418698765 	(obj:0)
STE(6,77)                            6299.99999999996 	(obj:0)
STE(6,78)                            7616.21408587646 	(obj:0)
STE(6,79)                               2641.46438921 	(obj:0)
STE(6,80)                            3957.67847508651 	(obj:0)
STE(6,81)                            4299.71428809882 	(obj:0)
STE(6,82)                            5615.92837397532 	(obj:0)
STE(6,83)                            4299.71428809884 	(obj:0)
STE(6,84)                            5615.92837397535 	(obj:0)
STE(6,85)                            5957.96418698766 	(obj:0)
STE(6,86)                            7274.17827286417 	(obj:0)
STE(6,87)                            4299.71428809876 	(obj:0)
STE(6,88)                            5615.92837397527 	(obj:0)
STE(6,89)                            5957.96418698762 	(obj:0)
STE(6,90)                            7274.17827286409 	(obj:0)
STE(6,91)                            5957.96418698761 	(obj:0)
STE(6,92)                            7274.17827286411 	(obj:0)
STE(6,93)                            7616.21408587643 	(obj:0)
STE(6,94)                            8932.42817175293 	(obj:0)
STE(6,95)                            2983.50020222234 	(obj:0)
STE(6,96)                            4299.71428809884 	(obj:0)
STE(6,97)                            4641.75010111115 	(obj:0)
STE(6,98)                            5957.96418698766 	(obj:0)
STE(6,99)                            4641.75010111118 	(obj:0)
STE(6,100)                           5957.96418698769 	(obj:0)
STE(6,101)                                       6300 	(obj:0)
STE(6,102)                           7616.21408587651 	(obj:0)
STE(6,103)                           4641.75010111116 	(obj:0)
STE(6,104)                           5957.96418698766 	(obj:0)
STE(6,105)                           6300.00000000002 	(obj:0)
STE(6,106)                           7616.21408587648 	(obj:0)
STE(6,107)                           6300.00000000004 	(obj:0)
STE(6,108)                           7616.21408587651 	(obj:0)
STE(6,109)                           7958.24989888882 	(obj:0)
STE(6,110)                           9274.46398476533 	(obj:0)
STE(6,111)                           4299.71428809884 	(obj:0)
STE(6,112)                           5615.92837397535 	(obj:0)
STE(6,113)                           5957.96418698766 	(obj:0)
STE(6,114)                           7274.17827286417 	(obj:0)
STE(6,115)                           5957.96418698769 	(obj:0)
STE(6,116)                           7274.17827286419 	(obj:0)
STE(6,117)                           7616.21408587651 	(obj:0)
STE(6,118)                           8932.42817175301 	(obj:0)
STE(6,119)                           5957.96418698761 	(obj:0)
STE(6,120)                           7274.17827286411 	(obj:0)
STE(6,121)                           7616.21408587642 	(obj:0)
STE(6,122)                           8932.42817175293 	(obj:0)
STE(6,123)                           7616.21408587645 	(obj:0)
STE(6,124)                           8932.42817175296 	(obj:0)
STE(6,125)                           9274.46398476527 	(obj:0)
STE(6,126)                           10590.6780706418 	(obj:0)
BG(5)                                936.354146548145 	(obj:10)
BG(6)                                2673.40993877551 	(obj:10)
AVE(1)                               3259.55177567504 	(obj:0)
WB(2)                                 586.14594926618 	(obj:0)
AVE(2)                               3259.55588804169 	(obj:0)
WB(3)                                3579.36165209166 	(obj:0)
AVE(3)                               3579.36165209166 	(obj:0)
WB(4)                              0.0732654787188949 	(obj:0)
AVE(4)                               3579.36576445831 	(obj:0)
AVE(5)                               3472.77007794174 	(obj:0)
WB(6)                                 3046.3618950668 	(obj:0)
AVE(6)                                3046.3618950668 	(obj:0)
WG(1)                                3259.55177567504 	(obj:10)
WG(2)                                2673.40993877551 	(obj:10)
WG(4)                                3579.29249897959 	(obj:10)
WG(5)                                3472.77007794174 	(obj:10)
BG(1)                                936.740723304551 	(obj:10)
BG(3)                                4196.29249897959 	(obj:10)
BG(4)                                             617 	(obj:10)
y1(1,1)                              1492.42490899996 	(obj:0)
y1(3,7)                              1492.42490899989 	(obj:0)
y1(3,9)                              1492.42490899989 	(obj:0)
y1(3,11)                             1492.42490899989 	(obj:0)
y1(3,13)                             1492.42490899989 	(obj:0)
y1(4,15)                             1492.42490899996 	(obj:0)
y1(4,17)                             1492.42490899996 	(obj:0)
y1(4,19)                             1492.42490899996 	(obj:0)
y1(4,21)                             1492.42490899996 	(obj:0)
y1(4,23)                             1492.42490899996 	(obj:0)
y1(4,25)                             1492.42490899996 	(obj:0)
y1(4,27)                             1492.42490899996 	(obj:0)
y1(4,29)                             1492.42490899996 	(obj:0)
y1(5,31)                             1701.00000000005 	(obj:0)
y1(5,32)                             208.575091000114 	(obj:0)
y1(5,33)                             1701.00000000005 	(obj:0)
y1(5,34)                             208.575091000114 	(obj:0)
y1(5,35)                             1701.00000000005 	(obj:0)
y1(5,36)                             208.575091000114 	(obj:0)
y1(5,37)                             1701.00000000005 	(obj:0)
y1(5,38)                             208.575091000114 	(obj:0)
y1(5,39)                             1701.00000000005 	(obj:0)
y1(5,40)                             208.575091000114 	(obj:0)
y1(5,41)                             1701.00000000005 	(obj:0)
y1(5,42)                             208.575091000114 	(obj:0)
y1(5,43)                             1701.00000000005 	(obj:0)
y1(5,44)                             208.575091000114 	(obj:0)
y1(5,45)                             1701.00000000005 	(obj:0)
y1(5,46)                             208.575091000114 	(obj:0)
y1(5,47)                             1701.00000000005 	(obj:0)
y1(5,48)                             208.575091000114 	(obj:0)
y1(5,49)                             1701.00000000005 	(obj:0)
y1(5,50)                             208.575091000114 	(obj:0)
y1(5,51)                             1701.00000000005 	(obj:0)
y1(5,52)                             208.575091000114 	(obj:0)
y1(5,53)                             1701.00000000005 	(obj:0)
y1(5,54)                             208.575091000114 	(obj:0)
y1(5,55)                             1701.00000000005 	(obj:0)
y1(5,56)                             208.575091000114 	(obj:0)
y1(5,57)                             1701.00000000005 	(obj:0)
y1(5,58)                             208.575091000114 	(obj:0)
y1(5,59)                             1701.00000000005 	(obj:0)
y1(5,60)                             208.575091000114 	(obj:0)
y1(5,61)                             1701.00000000005 	(obj:0)
y1(5,62)                             208.575091000114 	(obj:0)
y2(2,4)                              1385.48851144895 	(obj:0)
y2(2,6)                              1385.48851144895 	(obj:0)
y2(6,64)                             1385.48851144895 	(obj:0)
y2(6,66)                             1385.48851144895 	(obj:0)
y2(6,68)                             1385.48851144895 	(obj:0)
y2(6,70)                             1385.48851144895 	(obj:0)
y2(6,72)                             1385.48851144895 	(obj:0)
y2(6,74)                             1385.48851144895 	(obj:0)
y2(6,76)                             1385.48851144895 	(obj:0)
y2(6,78)                             1385.48851144895 	(obj:0)
y2(6,80)                             1385.48851144895 	(obj:0)
y2(6,82)                             1385.48851144895 	(obj:0)
y2(6,84)                             1385.48851144895 	(obj:0)
y2(6,86)                             1385.48851144895 	(obj:0)
y2(6,88)                             1385.48851144895 	(obj:0)
y2(6,90)                             1385.48851144895 	(obj:0)
y2(6,92)                             1385.48851144895 	(obj:0)
y2(6,94)                             1385.48851144895 	(obj:0)
y2(6,96)                             1385.48851144895 	(obj:0)
y2(6,98)                             1385.48851144895 	(obj:0)
